(set-logic LIA) (declare-var a!M4 Int) (declare-var mPostExec Int) (declare-var B5 Bool) (declare-var nPostExec Int) (declare-var pPostExec Int) (declare-var oPostExec Int) (declare-var p!0 Int) (declare-var o!0 Int) (declare-var n!0 Int) (declare-var m!0 Int) (declare-var inI0 Int) (declare-var J13 Bool) (declare-var J27 Bool) (declare-var aPostExec Int) (declare-var J20 Bool) (declare-var a!41 Int) (declare-var J34 Bool) (synth-fun rankingFunction!0 ((arg0 Int) (arg1 Int) (arg2 Int) (arg3 Int) (arg4 Int)) Int ((NTInt Int) (NTbool Bool)) ((NTInt Int (arg0 arg1 arg2 arg3 arg4 0 1 (- NTInt) (+ NTInt NTInt) (- NTInt NTInt) (ite NTbool NTInt NTInt))) (NTbool Bool ((not NTbool) (and NTbool NTbool) (or NTbool NTbool) (ite NTbool NTbool NTbool) (= NTInt NTInt) (< NTInt NTInt) (> NTInt NTInt))))) (constraint (=> (and (and (and (and (and (and (and (and (and (and (and (and (and (= J13 (<= (* (* 4 a!M4) a!M4) n!0)) (= J20 (<= (* (* 4 a!M4) a!M4) m!0))) (= J27 (<= (* (* 4 a!M4) a!M4) o!0))) (= J34 (not (<= (* (* 4 a!M4) a!M4) p!0)))) (= B5 (or J13 (or (and (not J13) J20) (or (and (not J13) (and (not J20) J27)) (and (not J13) (and (not J20) (and (not J27) (not J34))))))))) (= a!41 (+ 1 a!M4))) (=> B5 (= aPostExec a!41))) B5) (= inI0 0)) (>= a!M4 0)) (= n!0 nPostExec)) (= m!0 mPostExec)) (= o!0 oPostExec)) (= p!0 pPostExec)) (and (> (rankingFunction!0 n!0 m!0 o!0 p!0 a!M4) (rankingFunction!0 nPostExec mPostExec oPostExec pPostExec aPostExec)) (>= (rankingFunction!0 n!0 m!0 o!0 p!0 a!M4) 0)))) (check-synth)